c "251995.clq"
p edge 251 3760
e 1 17
e 1 18
e 1 19
e 1 21
e 1 23
e 1 24
e 1 25
e 1 26
e 1 28
e 1 36
e 1 42
e 1 52
e 1 63
e 1 75
e 1 78
e 1 80
e 1 88
e 1 94
e 1 95
e 1 110
e 1 114
e 1 120
e 1 122
e 1 123
e 1 125
e 1 128
e 1 129
e 1 137
e 1 144
e 1 149
e 1 154
e 1 156
e 1 169
e 1 208
e 1 209
e 1 232
e 1 242
e 1 245
e 2 17
e 2 18
e 2 19
e 2 20
e 2 22
e 2 24
e 2 27
e 2 28
e 2 30
e 2 32
e 2 33
e 2 37
e 2 40
e 2 41
e 2 43
e 2 45
e 2 46
e 2 47
e 2 48
e 2 53
e 2 54
e 2 58
e 2 60
e 2 75
e 2 79
e 2 87
e 2 88
e 2 96
e 2 103
e 2 112
e 2 144
e 2 145
e 2 149
e 2 157
e 2 163
e 2 169
e 2 172
e 2 174
e 2 185
e 2 193
e 2 203
e 2 221
e 2 222
e 2 226
e 2 227
e 3 17
e 3 18
e 3 19
e 3 21
e 3 22
e 3 23
e 3 24
e 3 26
e 3 28
e 3 30
e 3 31
e 3 32
e 3 34
e 3 35
e 3 37
e 3 38
e 3 41
e 3 42
e 3 47
e 3 49
e 3 51
e 3 60
e 3 71
e 3 80
e 3 89
e 3 103
e 3 115
e 3 117
e 3 132
e 3 133
e 3 137
e 3 159
e 3 163
e 3 170
e 3 173
e 3 184
e 3 198
e 4 17
e 4 18
e 4 19
e 4 20
e 4 21
e 4 22
e 4 23
e 4 24
e 4 25
e 4 30
e 4 31
e 4 32
e 4 34
e 4 37
e 4 39
e 4 40
e 4 44
e 4 47
e 4 51
e 4 53
e 4 58
e 4 62
e 4 64
e 4 65
e 4 72
e 4 73
e 4 74
e 4 77
e 4 78
e 4 82
e 4 84
e 4 87
e 4 95
e 4 96
e 4 100
e 4 101
e 4 123
e 4 131
e 4 133
e 4 140
e 4 147
e 4 154
e 4 156
e 4 160
e 4 162
e 4 167
e 4 190
e 4 191
e 4 196
e 4 200
e 4 217
e 4 228
e 4 242
e 4 250
e 5 17
e 5 19
e 5 23
e 5 34
e 5 36
e 5 43
e 5 46
e 5 48
e 5 53
e 5 62
e 5 63
e 5 64
e 5 68
e 5 75
e 5 85
e 5 92
e 5 96
e 5 102
e 5 105
e 5 109
e 5 114
e 5 128
e 5 174
e 5 195
e 5 198
e 5 208
e 5 242
e 5 249
e 6 17
e 6 18
e 6 20
e 6 21
e 6 22
e 6 24
e 6 30
e 6 31
e 6 37
e 6 40
e 6 41
e 6 42
e 6 45
e 6 48
e 6 52
e 6 54
e 6 62
e 6 63
e 6 66
e 6 71
e 6 73
e 6 75
e 6 77
e 6 92
e 6 97
e 6 101
e 6 106
e 6 119
e 6 121
e 6 128
e 6 135
e 6 136
e 6 159
e 6 180
e 6 189
e 6 194
e 6 211
e 6 218
e 6 239
e 7 17
e 7 18
e 7 19
e 7 20
e 7 21
e 7 24
e 7 26
e 7 27
e 7 28
e 7 29
e 7 36
e 7 37
e 7 38
e 7 41
e 7 42
e 7 55
e 7 58
e 7 67
e 7 74
e 7 75
e 7 84
e 7 87
e 7 88
e 7 92
e 7 93
e 7 97
e 7 100
e 7 107
e 7 110
e 7 112
e 7 118
e 7 141
e 7 144
e 7 146
e 7 147
e 7 150
e 7 159
e 7 171
e 7 176
e 7 184
e 7 187
e 7 195
e 7 215
e 7 227
e 7 230
e 7 232
e 7 235
e 8 17
e 8 18
e 8 19
e 8 20
e 8 21
e 8 22
e 8 23
e 8 24
e 8 25
e 8 27
e 8 30
e 8 31
e 8 35
e 8 36
e 8 43
e 8 46
e 8 54
e 8 57
e 8 60
e 8 67
e 8 68
e 8 90
e 8 92
e 8 98
e 8 103
e 8 109
e 8 116
e 8 121
e 8 130
e 8 137
e 8 147
e 8 151
e 8 157
e 8 169
e 8 171
e 8 194
e 8 195
e 8 206
e 8 212
e 8 239
e 9 17
e 9 18
e 9 19
e 9 20
e 9 21
e 9 22
e 9 23
e 9 25
e 9 27
e 9 29
e 9 31
e 9 33
e 9 35
e 9 37
e 9 38
e 9 41
e 9 42
e 9 43
e 9 46
e 9 52
e 9 53
e 9 65
e 9 67
e 9 69
e 9 74
e 9 76
e 9 85
e 9 99
e 9 105
e 9 108
e 9 125
e 9 128
e 9 144
e 9 157
e 9 177
e 9 183
e 9 188
e 9 189
e 9 236
e 9 239
e 10 17
e 10 18
e 10 19
e 10 20
e 10 21
e 10 22
e 10 23
e 10 24
e 10 25
e 10 26
e 10 28
e 10 29
e 10 30
e 10 33
e 10 41
e 10 45
e 10 51
e 10 64
e 10 65
e 10 66
e 10 68
e 10 95
e 10 98
e 10 99
e 10 121
e 10 125
e 10 132
e 10 136
e 10 145
e 10 153
e 10 169
e 10 177
e 10 201
e 10 236
e 11 17
e 11 18
e 11 19
e 11 20
e 11 22
e 11 23
e 11 24
e 11 25
e 11 26
e 11 29
e 11 31
e 11 32
e 11 35
e 11 40
e 11 46
e 11 52
e 11 55
e 11 56
e 11 61
e 11 62
e 11 63
e 11 65
e 11 68
e 11 76
e 11 77
e 11 107
e 11 108
e 11 111
e 11 113
e 11 115
e 11 123
e 11 138
e 11 148
e 11 161
e 11 169
e 11 170
e 11 178
e 11 183
e 11 184
e 11 192
e 11 222
e 11 226
e 11 241
e 11 242
e 11 245
e 12 17
e 12 18
e 12 19
e 12 20
e 12 24
e 12 25
e 12 27
e 12 28
e 12 32
e 12 33
e 12 34
e 12 35
e 12 38
e 12 65
e 12 74
e 12 80
e 12 82
e 12 88
e 12 89
e 12 97
e 12 103
e 12 105
e 12 106
e 12 120
e 12 141
e 12 157
e 12 177
e 12 178
e 12 185
e 12 198
e 12 208
e 12 215
e 12 219
e 12 221
e 12 250
e 13 17
e 13 18
e 13 19
e 13 20
e 13 21
e 13 22
e 13 23
e 13 24
e 13 26
e 13 27
e 13 29
e 13 30
e 13 31
e 13 32
e 13 35
e 13 36
e 13 37
e 13 42
e 13 43
e 13 46
e 13 48
e 13 55
e 13 59
e 13 70
e 13 71
e 13 73
e 13 81
e 13 86
e 13 90
e 13 91
e 13 97
e 13 103
e 13 104
e 13 106
e 13 111
e 13 112
e 13 120
e 13 127
e 13 129
e 13 130
e 13 132
e 13 140
e 13 141
e 13 144
e 13 158
e 13 163
e 13 174
e 13 182
e 13 186
e 13 190
e 13 196
e 13 198
e 13 199
e 13 210
e 13 213
e 13 219
e 13 222
e 13 224
e 13 226
e 13 228
e 13 236
e 13 237
e 13 246
e 14 17
e 14 18
e 14 19
e 14 20
e 14 21
e 14 22
e 14 26
e 14 27
e 14 32
e 14 34
e 14 38
e 14 43
e 14 45
e 14 54
e 14 55
e 14 64
e 14 78
e 14 84
e 14 92
e 14 97
e 14 102
e 14 121
e 14 131
e 14 146
e 14 153
e 14 161
e 14 162
e 14 167
e 14 172
e 14 175
e 14 195
e 14 199
e 14 204
e 14 226
e 14 227
e 14 228
e 14 230
e 14 250
e 15 17
e 15 18
e 15 20
e 15 21
e 15 22
e 15 23
e 15 25
e 15 26
e 15 28
e 15 29
e 15 34
e 15 35
e 15 36
e 15 37
e 15 39
e 15 42
e 15 45
e 15 47
e 15 49
e 15 50
e 15 51
e 15 53
e 15 57
e 15 60
e 15 79
e 15 80
e 15 83
e 15 92
e 15 93
e 15 97
e 15 100
e 15 103
e 15 111
e 15 113
e 15 114
e 15 115
e 15 133
e 15 153
e 15 180
e 15 184
e 15 194
e 15 197
e 15 220
e 15 222
e 15 230
e 15 237
e 16 17
e 16 18
e 16 19
e 16 20
e 16 21
e 16 23
e 16 25
e 16 26
e 16 27
e 16 28
e 16 29
e 16 32
e 16 33
e 16 37
e 16 38
e 16 39
e 16 44
e 16 45
e 16 50
e 16 52
e 16 55
e 16 59
e 16 60
e 16 65
e 16 67
e 16 69
e 16 70
e 16 77
e 16 80
e 16 81
e 16 82
e 16 87
e 16 88
e 16 90
e 16 95
e 16 100
e 16 105
e 16 106
e 16 115
e 16 129
e 16 131
e 16 146
e 16 154
e 16 156
e 16 161
e 16 168
e 16 174
e 16 175
e 16 179
e 16 201
e 16 202
e 16 208
e 16 213
e 16 217
e 16 223
e 16 225
e 16 233
e 17 18
e 17 19
e 17 20
e 17 21
e 17 22
e 17 23
e 17 24
e 17 25
e 17 26
e 17 27
e 17 28
e 17 29
e 17 30
e 17 31
e 17 32
e 17 33
e 17 34
e 17 36
e 17 38
e 17 39
e 17 40
e 17 41
e 17 42
e 17 44
e 17 49
e 17 52
e 17 54
e 17 55
e 17 56
e 17 57
e 17 58
e 17 59
e 17 63
e 17 64
e 17 65
e 17 67
e 17 69
e 17 71
e 17 76
e 17 77
e 17 79
e 17 83
e 17 84
e 17 85
e 17 94
e 17 95
e 17 96
e 17 98
e 17 99
e 17 100
e 17 104
e 17 109
e 17 111
e 17 113
e 17 118
e 17 121
e 17 124
e 17 126
e 17 127
e 17 138
e 17 139
e 17 140
e 17 141
e 17 142
e 17 144
e 17 145
e 17 149
e 17 150
e 17 153
e 17 157
e 17 159
e 17 160
e 17 167
e 17 174
e 17 189
e 17 194
e 17 197
e 17 198
e 17 203
e 17 212
e 17 216
e 18 19
e 18 20
e 18 21
e 18 22
e 18 23
e 18 27
e 18 28
e 18 29
e 18 30
e 18 31
e 18 32
e 18 34
e 18 35
e 18 36
e 18 39
e 18 42
e 18 45
e 18 49
e 18 50
e 18 52
e 18 53
e 18 54
e 18 61
e 18 63
e 18 65
e 18 66
e 18 70
e 18 72
e 18 73
e 18 76
e 18 79
e 18 80
e 18 84
e 18 86
e 18 89
e 18 93
e 18 96
e 18 99
e 18 102
e 18 104
e 18 105
e 18 106
e 18 111
e 18 117
e 18 118
e 18 127
e 18 131
e 18 135
e 18 139
e 18 146
e 18 147
e 18 154
e 18 157
e 18 160
e 18 166
e 18 170
e 18 176
e 18 182
e 18 183
e 18 184
e 18 201
e 18 207
e 18 214
e 18 216
e 18 220
e 18 228
e 18 232
e 18 235
e 18 245
e 18 251
e 19 20
e 19 21
e 19 22
e 19 23
e 19 25
e 19 26
e 19 27
e 19 28
e 19 29
e 19 30
e 19 31
e 19 32
e 19 33
e 19 34
e 19 35
e 19 36
e 19 37
e 19 40
e 19 41
e 19 42
e 19 44
e 19 45
e 19 46
e 19 47
e 19 48
e 19 49
e 19 52
e 19 55
e 19 56
e 19 57
e 19 58
e 19 59
e 19 60
e 19 61
e 19 62
e 19 65
e 19 67
e 19 69
e 19 70
e 19 73
e 19 78
e 19 80
e 19 90
e 19 96
e 19 105
e 19 109
e 19 111
e 19 115
e 19 128
e 19 130
e 19 136
e 19 144
e 19 158
e 19 167
e 19 168
e 19 173
e 19 178
e 19 179
e 19 181
e 19 188
e 19 190
e 19 191
e 19 196
e 19 198
e 19 199
e 19 206
e 19 214
e 19 215
e 19 237
e 19 238
e 19 241
e 19 248
e 19 249
e 20 21
e 20 22
e 20 23
e 20 24
e 20 25
e 20 27
e 20 29
e 20 31
e 20 32
e 20 33
e 20 36
e 20 37
e 20 39
e 20 40
e 20 42
e 20 44
e 20 47
e 20 53
e 20 54
e 20 57
e 20 58
e 20 59
e 20 60
e 20 64
e 20 69
e 20 71
e 20 73
e 20 76
e 20 82
e 20 86
e 20 92
e 20 93
e 20 97
e 20 100
e 20 101
e 20 102
e 20 110
e 20 111
e 20 122
e 20 124
e 20 130
e 20 136
e 20 140
e 20 146
e 20 152
e 20 156
e 20 162
e 20 166
e 20 175
e 20 182
e 20 183
e 20 200
e 20 209
e 20 214
e 20 225
e 20 241
e 20 248
e 20 250
e 21 22
e 21 23
e 21 24
e 21 25
e 21 26
e 21 28
e 21 29
e 21 30
e 21 31
e 21 33
e 21 36
e 21 39
e 21 41
e 21 43
e 21 45
e 21 46
e 21 49
e 21 50
e 21 51
e 21 52
e 21 53
e 21 54
e 21 59
e 21 60
e 21 62
e 21 63
e 21 65
e 21 70
e 21 74
e 21 77
e 21 79
e 21 81
e 21 83
e 21 89
e 21 90
e 21 96
e 21 101
e 21 106
e 21 109
e 21 110
e 21 118
e 21 126
e 21 133
e 21 137
e 21 143
e 21 149
e 21 154
e 21 167
e 21 168
e 21 174
e 21 175
e 21 176
e 21 181
e 21 191
e 21 198
e 21 201
e 21 208
e 21 241
e 21 244
e 22 24
e 22 25
e 22 26
e 22 27
e 22 28
e 22 29
e 22 30
e 22 31
e 22 33
e 22 34
e 22 35
e 22 36
e 22 37
e 22 38
e 22 41
e 22 42
e 22 44
e 22 46
e 22 49
e 22 51
e 22 52
e 22 55
e 22 56
e 22 57
e 22 61
e 22 63
e 22 83
e 22 88
e 22 89
e 22 94
e 22 99
e 22 100
e 22 101
e 22 103
e 22 106
e 22 107
e 22 111
e 22 113
e 22 115
e 22 120
e 22 126
e 22 136
e 22 147
e 22 149
e 22 156
e 22 157
e 22 158
e 22 160
e 22 162
e 22 164
e 22 167
e 22 170
e 22 172
e 22 173
e 22 179
e 22 182
e 22 183
e 22 186
e 22 196
e 22 213
e 22 218
e 22 220
e 22 222
e 22 238
e 22 247
e 23 24
e 23 25
e 23 26
e 23 30
e 23 31
e 23 33
e 23 34
e 23 35
e 23 36
e 23 38
e 23 39
e 23 40
e 23 41
e 23 42
e 23 49
e 23 50
e 23 51
e 23 54
e 23 56
e 23 57
e 23 60
e 23 64
e 23 66
e 23 69
e 23 79
e 23 80
e 23 82
e 23 86
e 23 88
e 23 89
e 23 90
e 23 91
e 23 92
e 23 94
e 23 95
e 23 97
e 23 99
e 23 101
e 23 102
e 23 103
e 23 108
e 23 111
e 23 115
e 23 116
e 23 117
e 23 119
e 23 120
e 23 122
e 23 123
e 23 124
e 23 131
e 23 132
e 23 133
e 23 134
e 23 137
e 23 138
e 23 139
e 23 142
e 23 144
e 23 145
e 23 146
e 23 149
e 23 155
e 23 156
e 23 158
e 23 161
e 23 170
e 23 171
e 23 173
e 23 176
e 23 183
e 23 193
e 23 197
e 23 199
e 23 203
e 23 207
e 23 219
e 23 228
e 23 236
e 23 240
e 23 242
e 24 25
e 24 26
e 24 27
e 24 28
e 24 29
e 24 30
e 24 33
e 24 37
e 24 39
e 24 40
e 24 42
e 24 44
e 24 46
e 24 50
e 24 52
e 24 56
e 24 59
e 24 61
e 24 64
e 24 68
e 24 69
e 24 71
e 24 75
e 24 76
e 24 77
e 24 81
e 24 85
e 24 94
e 24 97
e 24 99
e 24 107
e 24 108
e 24 110
e 24 111
e 24 114
e 24 117
e 24 118
e 24 127
e 24 128
e 24 130
e 24 132
e 24 138
e 24 141
e 24 142
e 24 146
e 24 153
e 24 157
e 24 166
e 24 170
e 24 176
e 24 180
e 24 188
e 24 192
e 24 194
e 24 197
e 24 201
e 24 207
e 24 209
e 24 216
e 24 221
e 24 240
e 24 241
e 25 26
e 25 27
e 25 28
e 25 29
e 25 30
e 25 32
e 25 33
e 25 34
e 25 35
e 25 39
e 25 44
e 25 45
e 25 47
e 25 48
e 25 49
e 25 50
e 25 51
e 25 53
e 25 54
e 25 55
e 25 56
e 25 57
e 25 58
e 25 67
e 25 69
e 25 70
e 25 71
e 25 74
e 25 76
e 25 79
e 25 84
e 25 93
e 25 95
e 25 96
e 25 99
e 25 101
e 25 105
e 25 107
e 25 125
e 25 129
e 25 131
e 25 133
e 25 144
e 25 163
e 25 179
e 25 192
e 25 196
e 25 204
e 25 212
e 25 224
e 25 233
e 25 247
e 26 27
e 26 34
e 26 35
e 26 36
e 26 38
e 26 39
e 26 41
e 26 42
e 26 44
e 26 49
e 26 50
e 26 62
e 26 68
e 26 72
e 26 73
e 26 84
e 26 87
e 26 88
e 26 90
e 26 95
e 26 105
e 26 110
e 26 112
e 26 120
e 26 121
e 26 124
e 26 135
e 26 150
e 26 154
e 26 165
e 26 166
e 26 179
e 26 192
e 26 199
e 26 216
e 26 220
e 26 231
e 26 243
e 26 249
e 27 28
e 27 29
e 27 30
e 27 32
e 27 34
e 27 35
e 27 39
e 27 40
e 27 43
e 27 44
e 27 45
e 27 48
e 27 49
e 27 55
e 27 60
e 27 66
e 27 67
e 27 71
e 27 75
e 27 76
e 27 78
e 27 81
e 27 84
e 27 85
e 27 88
e 27 101
e 27 106
e 27 117
e 27 122
e 27 126
e 27 128
e 27 131
e 27 140
e 27 142
e 27 146
e 27 149
e 27 150
e 27 152
e 27 155
e 27 157
e 27 159
e 27 165
e 27 169
e 27 170
e 27 171
e 27 175
e 27 181
e 27 182
e 27 193
e 27 196
e 27 199
e 27 211
e 27 221
e 27 230
e 27 239
e 27 244
e 28 31
e 28 37
e 28 38
e 28 39
e 28 40
e 28 41
e 28 43
e 28 44
e 28 47
e 28 48
e 28 56
e 28 60
e 28 61
e 28 63
e 28 64
e 28 68
e 28 70
e 28 77
e 28 78
e 28 79
e 28 80
e 28 81
e 28 83
e 28 85
e 28 86
e 28 87
e 28 88
e 28 89
e 28 95
e 28 97
e 28 101
e 28 105
e 28 110
e 28 114
e 28 128
e 28 129
e 28 132
e 28 137
e 28 148
e 28 154
e 28 155
e 28 158
e 28 168
e 28 177
e 28 190
e 28 199
e 28 203
e 28 206
e 28 207
e 28 208
e 28 221
e 28 223
e 28 231
e 28 234
e 28 243
e 28 244
e 28 245
e 28 247
e 29 32
e 29 33
e 29 36
e 29 38
e 29 39
e 29 40
e 29 42
e 29 44
e 29 47
e 29 48
e 29 49
e 29 50
e 29 54
e 29 56
e 29 57
e 29 64
e 29 73
e 29 80
e 29 81
e 29 85
e 29 87
e 29 89
e 29 91
e 29 95
e 29 96
e 29 101
e 29 103
e 29 112
e 29 113
e 29 123
e 29 126
e 29 128
e 29 129
e 29 134
e 29 148
e 29 168
e 29 169
e 29 185
e 29 189
e 29 201
e 29 208
e 29 211
e 29 226
e 29 245
e 30 31
e 30 32
e 30 33
e 30 36
e 30 37
e 30 38
e 30 39
e 30 41
e 30 43
e 30 48
e 30 52
e 30 55
e 30 62
e 30 76
e 30 87
e 30 95
e 30 96
e 30 102
e 30 107
e 30 116
e 30 131
e 30 134
e 30 139
e 30 150
e 30 197
e 30 208
e 30 226
e 30 227
e 30 232
e 31 40
e 31 44
e 31 46
e 31 48
e 31 50
e 31 54
e 31 61
e 31 62
e 31 63
e 31 64
e 31 66
e 31 69
e 31 70
e 31 72
e 31 77
e 31 85
e 31 89
e 31 98
e 31 101
e 31 108
e 31 133
e 31 134
e 31 136
e 31 138
e 31 150
e 31 164
e 31 165
e 31 166
e 31 175
e 31 177
e 31 178
e 31 180
e 31 189
e 31 204
e 31 214
e 31 217
e 31 235
e 31 240
e 31 241
e 32 33
e 32 34
e 32 38
e 32 39
e 32 43
e 32 45
e 32 47
e 32 48
e 32 50
e 32 54
e 32 56
e 32 60
e 32 61
e 32 68
e 32 72
e 32 82
e 32 87
e 32 98
e 32 101
e 32 105
e 32 111
e 32 112
e 32 113
e 32 117
e 32 151
e 32 155
e 32 160
e 32 177
e 32 209
e 32 212
e 32 215
e 32 227
e 32 229
e 32 232
e 32 235
e 32 238
e 32 239
e 33 34
e 33 35
e 33 43
e 33 49
e 33 50
e 33 51
e 33 57
e 33 61
e 33 65
e 33 68
e 33 81
e 33 83
e 33 90
e 33 102
e 33 104
e 33 112
e 33 125
e 33 130
e 33 142
e 33 149
e 33 153
e 33 171
e 33 174
e 33 175
e 33 179
e 33 180
e 33 182
e 33 186
e 33 195
e 33 197
e 33 200
e 33 231
e 33 238
e 33 246
e 34 35
e 34 37
e 34 38
e 34 40
e 34 43
e 34 44
e 34 45
e 34 51
e 34 53
e 34 55
e 34 56
e 34 59
e 34 62
e 34 64
e 34 69
e 34 70
e 34 71
e 34 72
e 34 73
e 34 80
e 34 81
e 34 83
e 34 84
e 34 90
e 34 92
e 34 94
e 34 98
e 34 99
e 34 100
e 34 103
e 34 106
e 34 110
e 34 111
e 34 113
e 34 117
e 34 119
e 34 130
e 34 132
e 34 138
e 34 144
e 34 150
e 34 151
e 34 152
e 34 155
e 34 158
e 34 159
e 34 163
e 34 164
e 34 165
e 34 168
e 34 175
e 34 176
e 34 181
e 34 189
e 34 200
e 34 202
e 34 210
e 34 212
e 34 219
e 34 221
e 34 225
e 34 233
e 34 237
e 34 245
e 35 38
e 35 40
e 35 41
e 35 43
e 35 46
e 35 47
e 35 50
e 35 53
e 35 56
e 35 57
e 35 58
e 35 59
e 35 62
e 35 65
e 35 66
e 35 67
e 35 74
e 35 75
e 35 76
e 35 78
e 35 80
e 35 84
e 35 85
e 35 86
e 35 87
e 35 88
e 35 100
e 35 110
e 35 114
e 35 116
e 35 119
e 35 120
e 35 125
e 35 135
e 35 138
e 35 146
e 35 151
e 35 155
e 35 156
e 35 158
e 35 164
e 35 174
e 35 183
e 35 192
e 35 193
e 35 200
e 35 201
e 35 202
e 35 203
e 35 206
e 35 212
e 35 213
e 35 221
e 35 234
e 35 239
e 35 242
e 35 246
e 36 44
e 36 48
e 36 52
e 36 61
e 36 66
e 36 69
e 36 70
e 36 73
e 36 74
e 36 79
e 36 81
e 36 82
e 36 83
e 36 98
e 36 104
e 36 108
e 36 110
e 36 129
e 36 133
e 36 135
e 36 137
e 36 139
e 36 142
e 36 143
e 36 147
e 36 148
e 36 149
e 36 151
e 36 170
e 36 183
e 36 185
e 36 187
e 36 194
e 36 205
e 36 219
e 36 240
e 36 244
e 36 249
e 37 40
e 37 43
e 37 44
e 37 45
e 37 51
e 37 52
e 37 57
e 37 59
e 37 66
e 37 71
e 37 77
e 37 80
e 37 81
e 37 84
e 37 88
e 37 89
e 37 94
e 37 98
e 37 102
e 37 123
e 37 124
e 37 131
e 37 135
e 37 138
e 37 141
e 37 176
e 37 178
e 37 181
e 37 184
e 37 187
e 37 214
e 37 220
e 37 223
e 37 233
e 37 236
e 38 41
e 38 45
e 38 46
e 38 47
e 38 54
e 38 56
e 38 57
e 38 59
e 38 74
e 38 81
e 38 93
e 38 94
e 38 99
e 38 107
e 38 112
e 38 118
e 38 119
e 38 120
e 38 128
e 38 129
e 38 134
e 38 135
e 38 139
e 38 147
e 38 168
e 38 169
e 38 173
e 38 175
e 38 187
e 38 192
e 38 195
e 38 197
e 38 198
e 38 208
e 38 214
e 38 222
e 38 224
e 38 226
e 38 227
e 38 230
e 38 235
e 38 247
e 38 248
e 38 250
e 39 43
e 39 47
e 39 49
e 39 51
e 39 53
e 39 54
e 39 58
e 39 64
e 39 67
e 39 69
e 39 74
e 39 77
e 39 78
e 39 82
e 39 94
e 39 100
e 39 105
e 39 130
e 39 135
e 39 141
e 39 151
e 39 157
e 39 160
e 39 168
e 39 176
e 39 182
e 39 183
e 39 192
e 39 194
e 39 195
e 39 196
e 39 201
e 39 207
e 39 218
e 40 46
e 40 47
e 40 50
e 40 55
e 40 59
e 40 63
e 40 65
e 40 66
e 40 67
e 40 69
e 40 70
e 40 72
e 40 83
e 40 86
e 40 91
e 40 99
e 40 106
e 40 107
e 40 109
e 40 116
e 40 118
e 40 126
e 40 129
e 40 130
e 40 133
e 40 138
e 40 139
e 40 141
e 40 146
e 40 148
e 40 150
e 40 163
e 40 165
e 40 166
e 40 185
e 40 186
e 40 189
e 40 192
e 40 205
e 40 217
e 40 229
e 40 232
e 40 239
e 40 244
e 41 46
e 41 48
e 41 51
e 41 53
e 41 55
e 41 61
e 41 64
e 41 66
e 41 72
e 41 75
e 41 77
e 41 78
e 41 82
e 41 83
e 41 85
e 41 86
e 41 90
e 41 92
e 41 102
e 41 103
e 41 111
e 41 112
e 41 113
e 41 116
e 41 119
e 41 124
e 41 129
e 41 130
e 41 143
e 41 152
e 41 155
e 41 165
e 41 167
e 41 171
e 41 200
e 41 209
e 41 214
e 41 218
e 41 224
e 41 234
e 41 241
e 41 249
e 42 45
e 42 48
e 42 50
e 42 51
e 42 53
e 42 58
e 42 61
e 42 62
e 42 66
e 42 67
e 42 72
e 42 73
e 42 84
e 42 90
e 42 92
e 42 98
e 42 104
e 42 107
e 42 109
e 42 116
e 42 124
e 42 151
e 42 155
e 42 171
e 42 172
e 42 176
e 42 182
e 42 191
e 42 200
e 42 210
e 42 213
e 42 248
e 43 46
e 43 49
e 43 53
e 43 56
e 43 59
e 43 61
e 43 64
e 43 65
e 43 73
e 43 83
e 43 87
e 43 105
e 43 113
e 43 116
e 43 118
e 43 120
e 43 124
e 43 132
e 43 136
e 43 150
e 43 154
e 43 179
e 43 183
e 43 188
e 43 189
e 43 197
e 43 202
e 43 217
e 43 241
e 44 47
e 44 56
e 44 69
e 44 75
e 44 86
e 44 101
e 44 115
e 44 142
e 44 162
e 44 181
e 44 193
e 44 199
e 44 202
e 44 217
e 44 235
e 45 47
e 45 50
e 45 52
e 45 55
e 45 59
e 45 72
e 45 74
e 45 76
e 45 78
e 45 79
e 45 90
e 45 93
e 45 96
e 45 101
e 45 108
e 45 111
e 45 120
e 45 122
e 45 126
e 45 131
e 45 136
e 45 137
e 45 139
e 45 143
e 45 148
e 45 152
e 45 161
e 45 163
e 45 179
e 45 185
e 45 193
e 45 196
e 45 210
e 45 215
e 45 223
e 45 230
e 45 231
e 45 238
e 46 51
e 46 53
e 46 55
e 46 57
e 46 58
e 46 72
e 46 73
e 46 77
e 46 98
e 46 104
e 46 106
e 46 125
e 46 135
e 46 145
e 46 163
e 46 165
e 46 167
e 46 175
e 46 191
e 46 195
e 46 209
e 46 223
e 46 248
e 47 48
e 47 49
e 47 57
e 47 62
e 47 66
e 47 69
e 47 71
e 47 82
e 47 83
e 47 84
e 47 103
e 47 124
e 47 131
e 47 134
e 47 136
e 47 150
e 47 162
e 47 166
e 47 173
e 47 174
e 47 186
e 47 192
e 47 194
e 47 206
e 47 212
e 47 215
e 48 51
e 48 58
e 48 63
e 48 67
e 48 72
e 48 76
e 48 78
e 48 79
e 48 82
e 48 86
e 48 91
e 48 103
e 48 104
e 48 118
e 48 138
e 48 142
e 48 146
e 48 171
e 48 184
e 48 186
e 48 236
e 48 244
e 49 57
e 49 61
e 49 67
e 49 71
e 49 72
e 49 73
e 49 82
e 49 83
e 49 84
e 49 85
e 49 86
e 49 88
e 49 91
e 49 103
e 49 115
e 49 117
e 49 129
e 49 137
e 49 148
e 49 158
e 49 159
e 49 166
e 49 173
e 49 180
e 49 193
e 49 202
e 49 205
e 49 210
e 49 213
e 49 218
e 49 226
e 49 230
e 50 58
e 50 60
e 50 68
e 50 74
e 50 75
e 50 80
e 50 83
e 50 97
e 50 104
e 50 105
e 50 108
e 50 114
e 50 125
e 50 127
e 50 144
e 50 151
e 50 158
e 50 160
e 50 170
e 50 187
e 50 204
e 50 211
e 50 212
e 50 216
e 50 217
e 50 233
e 50 244
e 50 250
e 51 52
e 51 56
e 51 62
e 51 79
e 51 85
e 51 89
e 51 93
e 51 98
e 51 108
e 51 117
e 51 125
e 51 135
e 51 139
e 51 141
e 51 149
e 51 152
e 51 158
e 51 178
e 51 186
e 51 190
e 51 209
e 51 236
e 52 54
e 52 58
e 52 76
e 52 80
e 52 85
e 52 96
e 52 97
e 52 112
e 52 121
e 52 134
e 52 137
e 52 142
e 52 152
e 52 159
e 52 165
e 52 179
e 52 195
e 52 199
e 52 206
e 52 217
e 52 220
e 52 228
e 52 239
e 52 243
e 52 244
e 53 87
e 53 88
e 53 89
e 53 135
e 53 149
e 53 181
e 53 186
e 53 190
e 53 191
e 53 205
e 53 226
e 53 229
e 53 247
e 54 60
e 54 78
e 54 82
e 54 91
e 54 93
e 54 94
e 54 99
e 54 100
e 54 102
e 54 109
e 54 113
e 54 119
e 54 124
e 54 141
e 54 143
e 54 147
e 54 162
e 54 180
e 54 188
e 54 191
e 54 197
e 54 202
e 54 211
e 54 225
e 54 237
e 55 58
e 55 62
e 55 65
e 55 68
e 55 74
e 55 90
e 55 91
e 55 93
e 55 104
e 55 106
e 55 116
e 55 118
e 55 137
e 55 141
e 55 153
e 55 158
e 55 165
e 55 168
e 55 170
e 55 171
e 55 174
e 55 178
e 55 188
e 55 196
e 55 197
e 55 203
e 55 216
e 55 217
e 55 235
e 55 246
e 56 58
e 56 68
e 56 70
e 56 71
e 56 75
e 56 86
e 56 100
e 56 102
e 56 115
e 56 116
e 56 117
e 56 119
e 56 120
e 56 121
e 56 129
e 56 132
e 56 154
e 56 166
e 56 185
e 56 195
e 56 226
e 56 229
e 57 59
e 57 60
e 57 63
e 57 66
e 57 68
e 57 70
e 57 72
e 57 74
e 57 82
e 57 84
e 57 91
e 57 96
e 57 99
e 57 109
e 57 111
e 57 112
e 57 118
e 57 121
e 57 123
e 57 143
e 57 145
e 57 170
e 57 189
e 57 199
e 57 222
e 57 226
e 57 238
e 57 245
e 58 59
e 58 60
e 58 62
e 58 64
e 58 65
e 58 69
e 58 86
e 58 116
e 58 125
e 58 127
e 58 128
e 58 131
e 58 136
e 58 139
e 58 145
e 58 147
e 58 177
e 58 180
e 58 186
e 58 187
e 58 191
e 58 196
e 58 206
e 58 209
e 58 216
e 58 219
e 58 224
e 58 235
e 58 242
e 58 244
e 59 61
e 59 72
e 59 76
e 59 79
e 59 81
e 59 82
e 59 92
e 59 110
e 59 114
e 59 118
e 59 119
e 59 121
e 59 134
e 59 143
e 59 149
e 59 153
e 59 155
e 59 167
e 59 183
e 59 226
e 59 228
e 59 230
e 59 243
e 60 61
e 60 63
e 60 68
e 60 77
e 60 92
e 60 94
e 60 98
e 60 99
e 60 115
e 60 117
e 60 120
e 60 126
e 60 132
e 60 162
e 60 171
e 60 172
e 60 173
e 60 178
e 60 197
e 60 220
e 60 249
e 61 63
e 61 66
e 61 70
e 61 75
e 61 80
e 61 88
e 61 91
e 61 93
e 61 98
e 61 114
e 61 134
e 61 142
e 61 145
e 61 151
e 61 157
e 61 162
e 61 164
e 61 173
e 61 175
e 61 184
e 61 193
e 61 203
e 61 204
e 61 211
e 62 63
e 62 66
e 62 68
e 62 70
e 62 71
e 62 74
e 62 75
e 62 77
e 62 79
e 62 87
e 62 94
e 62 98
e 62 108
e 62 112
e 62 113
e 62 119
e 62 129
e 62 139
e 62 140
e 62 156
e 62 160
e 62 161
e 62 172
e 62 178
e 62 205
e 62 212
e 62 232
e 62 242
e 63 67
e 63 70
e 63 89
e 63 97
e 63 106
e 63 116
e 63 120
e 63 131
e 63 173
e 63 178
e 63 180
e 63 183
e 63 202
e 63 230
e 63 239
e 63 249
e 64 73
e 64 74
e 64 75
e 64 78
e 64 81
e 64 91
e 64 96
e 64 103
e 64 117
e 64 122
e 64 134
e 64 149
e 64 157
e 64 161
e 64 164
e 64 165
e 64 183
e 64 193
e 64 219
e 64 235
e 64 249
e 65 67
e 65 72
e 65 87
e 65 89
e 65 91
e 65 97
e 65 100
e 65 107
e 65 117
e 65 122
e 65 123
e 65 126
e 65 129
e 65 132
e 65 140
e 65 143
e 65 148
e 65 159
e 65 167
e 65 168
e 65 185
e 65 193
e 65 197
e 65 208
e 65 210
e 65 220
e 65 231
e 65 232
e 65 237
e 66 75
e 66 78
e 66 82
e 66 92
e 66 114
e 66 118
e 66 119
e 66 129
e 66 142
e 66 146
e 66 163
e 66 170
e 66 197
e 66 209
e 66 214
e 67 68
e 67 71
e 67 76
e 67 77
e 67 86
e 67 89
e 67 91
e 67 92
e 67 93
e 67 96
e 67 104
e 67 109
e 67 120
e 67 125
e 67 126
e 67 127
e 67 133
e 67 141
e 67 146
e 67 147
e 67 148
e 67 166
e 67 173
e 67 188
e 67 203
e 67 218
e 67 220
e 67 222
e 67 224
e 67 229
e 67 234
e 67 239
e 67 243
e 67 244
e 67 250
e 67 251
e 68 71
e 68 81
e 68 109
e 68 142
e 68 149
e 68 159
e 68 166
e 68 184
e 68 194
e 68 215
e 68 224
e 68 225
e 68 229
e 68 233
e 68 238
e 68 239
e 68 242
e 68 251
e 69 90
e 69 105
e 69 107
e 69 114
e 69 118
e 69 127
e 69 139
e 69 157
e 69 164
e 69 169
e 69 179
e 69 188
e 69 200
e 69 234
e 69 240
e 70 76
e 70 79
e 70 85
e 70 99
e 70 102
e 70 104
e 70 108
e 70 110
e 70 137
e 70 143
e 70 156
e 70 161
e 70 168
e 70 237
e 71 73
e 71 83
e 71 84
e 71 102
e 71 107
e 71 112
e 71 119
e 71 123
e 71 136
e 71 137
e 71 169
e 71 171
e 71 182
e 71 212
e 71 222
e 71 225
e 71 231
e 71 247
e 72 88
e 72 109
e 72 133
e 72 143
e 72 153
e 72 156
e 72 164
e 72 165
e 72 172
e 72 177
e 72 187
e 72 191
e 72 203
e 72 219
e 72 230
e 72 237
e 73 78
e 73 89
e 73 100
e 73 114
e 73 122
e 73 128
e 73 130
e 73 145
e 73 183
e 73 194
e 73 207
e 74 85
e 74 95
e 74 97
e 74 108
e 74 112
e 74 116
e 74 119
e 74 132
e 74 133
e 74 141
e 74 143
e 74 152
e 74 155
e 74 163
e 74 164
e 74 171
e 74 177
e 74 190
e 74 192
e 74 211
e 74 212
e 74 213
e 74 221
e 74 234
e 74 244
e 74 250
e 75 78
e 75 81
e 75 96
e 75 99
e 75 125
e 75 148
e 75 151
e 75 153
e 75 154
e 75 161
e 75 163
e 75 172
e 75 175
e 75 187
e 75 192
e 75 193
e 75 200
e 75 208
e 75 222
e 75 227
e 75 235
e 76 79
e 76 94
e 76 102
e 76 104
e 76 108
e 76 112
e 76 118
e 76 122
e 76 156
e 76 166
e 76 188
e 76 209
e 76 211
e 76 226
e 77 86
e 77 93
e 77 97
e 77 108
e 77 133
e 77 147
e 77 151
e 77 166
e 77 169
e 77 190
e 77 192
e 77 203
e 77 221
e 78 87
e 78 123
e 78 127
e 78 128
e 78 153
e 78 161
e 78 206
e 78 237
e 78 244
e 78 250
e 79 95
e 79 113
e 79 117
e 79 119
e 79 132
e 79 133
e 79 140
e 79 147
e 79 180
e 79 187
e 79 195
e 79 201
e 79 214
e 79 215
e 79 218
e 79 227
e 79 228
e 80 94
e 80 109
e 80 110
e 80 113
e 80 156
e 80 183
e 80 204
e 80 235
e 81 85
e 81 90
e 81 93
e 81 109
e 81 141
e 81 142
e 81 194
e 81 198
e 81 212
e 81 222
e 82 83
e 82 90
e 82 95
e 82 102
e 82 106
e 82 107
e 82 114
e 82 123
e 82 140
e 82 144
e 82 152
e 82 155
e 82 157
e 82 159
e 82 163
e 82 169
e 82 187
e 82 196
e 82 201
e 82 218
e 82 241
e 82 248
e 82 251
e 83 104
e 83 105
e 83 121
e 83 140
e 83 147
e 83 153
e 83 170
e 83 179
e 83 188
e 83 189
e 84 93
e 84 105
e 84 117
e 84 123
e 84 130
e 84 133
e 84 152
e 84 166
e 84 190
e 84 199
e 85 86
e 85 87
e 85 93
e 85 94
e 85 121
e 85 122
e 85 160
e 85 177
e 85 202
e 85 204
e 85 216
e 85 243
e 86 91
e 86 95
e 86 98
e 86 110
e 86 116
e 86 134
e 86 147
e 86 148
e 86 156
e 86 157
e 86 163
e 86 172
e 86 185
e 86 193
e 86 202
e 86 236
e 86 237
e 86 240
e 87 115
e 87 127
e 87 138
e 87 151
e 87 158
e 87 200
e 87 208
e 87 221
e 87 238
e 88 91
e 88 98
e 88 101
e 88 106
e 88 118
e 88 132
e 88 150
e 88 151
e 88 163
e 88 173
e 88 174
e 88 212
e 88 223
e 88 239
e 89 94
e 89 95
e 89 126
e 89 131
e 89 137
e 89 139
e 89 142
e 89 169
e 89 172
e 89 218
e 89 223
e 89 236
e 90 91
e 90 92
e 90 102
e 90 114
e 90 119
e 90 127
e 90 140
e 90 172
e 90 174
e 90 180
e 90 202
e 90 216
e 90 224
e 90 246
e 91 108
e 91 139
e 91 146
e 91 151
e 91 153
e 91 159
e 91 163
e 91 175
e 91 189
e 91 190
e 91 201
e 91 207
e 91 222
e 91 229
e 92 110
e 92 127
e 92 133
e 92 135
e 92 149
e 92 176
e 92 197
e 92 225
e 92 240
e 93 101
e 93 104
e 93 110
e 93 120
e 93 122
e 93 147
e 93 155
e 93 169
e 93 186
e 93 189
e 93 212
e 93 216
e 93 217
e 93 231
e 93 245
e 93 246
e 93 247
e 94 115
e 94 126
e 94 155
e 94 162
e 94 184
e 94 207
e 94 233
e 95 106
e 95 107
e 95 121
e 95 122
e 95 127
e 95 134
e 95 138
e 95 140
e 95 185
e 95 195
e 95 204
e 95 217
e 95 225
e 95 246
e 96 100
e 96 103
e 96 113
e 96 122
e 96 126
e 96 134
e 96 136
e 96 144
e 96 155
e 96 189
e 96 202
e 96 210
e 96 235
e 96 245
e 97 107
e 97 108
e 97 122
e 97 125
e 97 138
e 97 140
e 97 144
e 97 145
e 97 146
e 97 155
e 97 163
e 97 170
e 97 172
e 97 180
e 97 192
e 97 193
e 97 204
e 97 217
e 97 220
e 97 227
e 97 243
e 97 251
e 98 157
e 98 166
e 98 169
e 98 171
e 98 181
e 98 247
e 99 100
e 99 154
e 99 160
e 99 181
e 99 184
e 99 195
e 99 205
e 99 219
e 99 226
e 99 234
e 100 143
e 100 144
e 100 148
e 100 168
e 100 178
e 100 190
e 100 192
e 100 249
e 101 125
e 101 128
e 101 134
e 101 145
e 101 162
e 101 165
e 101 168
e 101 173
e 101 176
e 101 177
e 101 228
e 102 104
e 102 109
e 102 114
e 102 124
e 102 127
e 102 128
e 102 152
e 102 164
e 102 186
e 102 190
e 102 194
e 102 198
e 102 233
e 102 242
e 103 132
e 103 146
e 103 181
e 103 189
e 103 215
e 103 240
e 103 243
e 104 120
e 104 121
e 104 123
e 104 126
e 104 136
e 104 148
e 104 159
e 104 164
e 104 168
e 104 176
e 104 181
e 104 194
e 104 196
e 104 240
e 105 107
e 105 114
e 105 115
e 105 174
e 105 184
e 105 199
e 105 216
e 105 235
e 105 244
e 105 248
e 105 249
e 106 123
e 106 156
e 106 161
e 106 178
e 106 191
e 106 215
e 106 243
e 107 139
e 107 211
e 107 213
e 107 218
e 107 227
e 107 231
e 107 251
e 108 109
e 108 111
e 108 113
e 108 115
e 108 119
e 108 124
e 108 137
e 108 154
e 108 168
e 108 176
e 108 194
e 108 206
e 108 230
e 108 245
e 109 122
e 109 141
e 109 178
e 109 184
e 109 204
e 109 206
e 109 242
e 110 112
e 110 113
e 110 122
e 110 124
e 110 125
e 110 130
e 110 134
e 110 135
e 110 138
e 110 161
e 110 182
e 110 195
e 110 200
e 110 232
e 110 233
e 110 246
e 110 249
e 110 251
e 111 116
e 111 124
e 111 171
e 111 172
e 111 193
e 111 196
e 111 208
e 111 242
e 112 115
e 112 121
e 112 130
e 112 135
e 112 141
e 112 143
e 112 154
e 112 162
e 112 180
e 112 181
e 112 182
e 112 199
e 112 207
e 112 215
e 113 121
e 113 126
e 113 132
e 113 136
e 113 154
e 113 158
e 113 161
e 113 204
e 113 212
e 113 214
e 114 124
e 114 148
e 114 162
e 114 174
e 114 219
e 114 237
e 114 239
e 114 246
e 115 116
e 115 117
e 115 130
e 115 138
e 115 145
e 115 153
e 115 158
e 115 167
e 115 210
e 115 213
e 115 247
e 115 250
e 115 251
e 116 135
e 116 165
e 116 173
e 116 186
e 116 197
e 116 206
e 117 123
e 117 140
e 117 152
e 117 187
e 117 191
e 117 211
e 117 218
e 117 242
e 118 123
e 118 131
e 118 142
e 118 143
e 118 189
e 118 206
e 118 216
e 118 238
e 119 127
e 119 129
e 119 196
e 119 216
e 119 232
e 119 248
e 120 124
e 120 151
e 120 156
e 120 182
e 120 184
e 120 195
e 120 198
e 120 202
e 120 219
e 120 227
e 120 238
e 121 185
e 121 193
e 121 194
e 121 210
e 122 134
e 122 143
e 122 148
e 122 150
e 122 152
e 122 172
e 122 177
e 122 181
e 122 185
e 122 191
e 122 206
e 122 210
e 122 221
e 122 242
e 122 245
e 122 247
e 123 126
e 123 127
e 123 128
e 123 211
e 123 213
e 123 217
e 123 222
e 124 125
e 124 169
e 124 180
e 124 196
e 124 225
e 124 233
e 124 249
e 125 150
e 125 152
e 125 182
e 125 185
e 125 190
e 125 203
e 126 136
e 126 137
e 126 164
e 126 165
e 126 166
e 126 206
e 126 228
e 126 237
e 126 243
e 127 140
e 127 153
e 127 158
e 127 159
e 127 210
e 127 221
e 127 230
e 127 244
e 128 136
e 128 148
e 128 167
e 128 168
e 128 172
e 128 207
e 128 209
e 128 210
e 128 215
e 128 223
e 128 231
e 129 130
e 129 143
e 129 154
e 129 161
e 129 216
e 129 228
e 129 240
e 130 131
e 130 155
e 130 205
e 130 214
e 130 220
e 130 225
e 130 234
e 131 239
e 132 138
e 132 150
e 132 151
e 132 183
e 132 185
e 132 189
e 132 242
e 132 246
e 132 248
e 133 140
e 133 184
e 133 188
e 133 198
e 133 204
e 133 211
e 133 216
e 133 227
e 133 228
e 133 236
e 134 135
e 134 145
e 134 152
e 134 161
e 134 162
e 134 192
e 134 195
e 134 203
e 134 207
e 134 208
e 135 139
e 135 160
e 135 175
e 135 180
e 135 187
e 135 203
e 135 215
e 135 224
e 135 239
e 136 177
e 136 182
e 136 188
e 136 190
e 136 207
e 136 219
e 136 240
e 137 191
e 137 227
e 137 236
e 138 142
e 138 145
e 138 179
e 138 181
e 138 205
e 138 243
e 139 144
e 139 150
e 139 158
e 139 160
e 139 162
e 139 177
e 139 200
e 139 209
e 139 224
e 139 233
e 139 245
e 139 248
e 140 147
e 140 152
e 140 153
e 140 178
e 140 191
e 140 234
e 140 238
e 141 176
e 141 177
e 141 186
e 141 197
e 141 230
e 141 231
e 141 241
e 142 145
e 142 160
e 142 200
e 142 202
e 142 205
e 142 231
e 142 234
e 142 237
e 142 241
e 142 250
e 143 156
e 143 173
e 143 207
e 143 228
e 143 241
e 143 243
e 144 145
e 144 167
e 144 192
e 144 213
e 144 221
e 144 224
e 144 231
e 144 234
e 145 149
e 145 150
e 145 177
e 145 201
e 145 209
e 145 230
e 145 231
e 145 240
e 146 154
e 146 159
e 146 170
e 146 185
e 146 205
e 146 208
e 146 229
e 146 231
e 146 247
e 147 165
e 147 174
e 147 205
e 147 214
e 147 221
e 147 223
e 147 225
e 147 247
e 147 248
e 148 160
e 148 164
e 148 179
e 148 217
e 149 164
e 149 204
e 149 225
e 149 241
e 150 174
e 150 201
e 150 206
e 151 179
e 151 187
e 151 204
e 151 213
e 151 231
e 151 234
e 152 159
e 152 165
e 152 170
e 152 201
e 152 235
e 152 243
e 153 161
e 153 185
e 153 186
e 153 187
e 153 188
e 153 209
e 153 222
e 153 246
e 153 248
e 154 198
e 154 202
e 154 235
e 155 160
e 155 191
e 155 198
e 155 207
e 155 240
e 155 243
e 155 248
e 156 187
e 156 214
e 156 247
e 156 251
e 157 167
e 157 196
e 157 205
e 157 215
e 157 225
e 158 164
e 158 172
e 158 210
e 158 214
e 159 160
e 159 228
e 159 232
e 160 162
e 160 220
e 160 227
e 161 164
e 161 220
e 162 176
e 162 181
e 162 186
e 162 188
e 163 167
e 163 175
e 163 182
e 163 207
e 163 213
e 163 247
e 163 249
e 164 188
e 164 210
e 165 167
e 165 198
e 165 203
e 165 218
e 165 223
e 165 224
e 165 229
e 165 248
e 165 250
e 166 207
e 166 218
e 166 220
e 166 229
e 166 246
e 167 171
e 167 176
e 167 179
e 167 181
e 167 212
e 167 223
e 167 228
e 167 237
e 168 178
e 168 180
e 168 190
e 169 171
e 169 178
e 169 219
e 169 240
e 170 173
e 170 198
e 170 211
e 170 229
e 170 246
e 171 205
e 171 214
e 171 221
e 171 222
e 171 225
e 171 229
e 172 175
e 172 199
e 172 214
e 172 224
e 172 246
e 173 215
e 173 236
e 173 241
e 174 179
e 174 199
e 174 204
e 174 211
e 174 223
e 174 234
e 174 242
e 175 188
e 175 201
e 175 217
e 175 219
e 175 227
e 175 232
e 175 236
e 176 184
e 176 186
e 176 209
e 177 238
e 177 249
e 178 191
e 178 203
e 178 230
e 178 246
e 179 194
e 179 233
e 180 182
e 180 200
e 180 211
e 180 237
e 180 245
e 181 204
e 181 205
e 181 250
e 183 187
e 183 224
e 183 229
e 184 219
e 184 251
e 186 190
e 186 202
e 186 205
e 186 209
e 186 223
e 186 240
e 186 243
e 187 215
e 187 223
e 187 245
e 187 250
e 188 232
e 188 241
e 188 251
e 189 199
e 190 193
e 190 234
e 190 237
e 191 229
e 191 231
e 192 200
e 192 211
e 192 220
e 192 232
e 192 238
e 194 223
e 194 232
e 194 233
e 194 234
e 194 236
e 195 201
e 195 251
e 196 200
e 196 238
e 196 244
e 197 205
e 197 224
e 198 224
e 199 203
e 199 250
e 200 251
e 201 206
e 201 213
e 201 226
e 201 227
e 201 230
e 202 216
e 202 225
e 203 210
e 203 218
e 203 225
e 204 210
e 204 244
e 206 208
e 206 238
e 207 218
e 208 213
e 208 218
e 208 220
e 208 236
e 209 222
e 209 248
e 210 223
e 210 226
e 210 235
e 211 233
e 212 213
e 212 229
e 212 233
e 212 248
e 213 217
e 213 249
e 213 251
e 215 228
e 216 251
e 217 219
e 218 221
e 219 249
e 220 243
e 223 229
e 223 246
e 225 251
e 226 233
e 226 239
e 226 245
e 227 247
e 228 240
e 229 232
e 229 234
e 229 250
e 231 247
e 232 236
e 234 245
e 237 238
e 239 241
